    pair_coeff        1 1 0.8365200764818 4.7 # C1
    bond_coeff        1 1.4937858508604 4.7 # C1-C1
    angle_coeff       1 2.9875717017208 180 # C1-C1-C1
