DODECANE {

  write_once("In Init") {
    units             real

    atom_style        full
    bond_style        harmonic
    angle_style       cosine/squared
    pair_style        lj/gromacs 9.0 12.0
    special_bonds     lj 0.0 1.0 1.0
    neighbor          2.5 bin
    neigh_modify      delay 1 every 1 check yes
  }
  write_once("Data Masses") {
    @atom:C1  52.853580 # C1
  }
  write_once("In Settings") {
    pair_coeff        @atom:C1 @atom:C1 0.8365200764818 4.7 # C1
    bond_coeff        @bond:Bo 1.4937858508604 4.7 # C1-C1
    angle_coeff       @angle:An 2.9875717017208 180 # C1-C1-C1
  }
  write("Data Atoms") {
    $atom:1  $mol:. @atom:C1  0.0   0.00   0.00   0.00
    $atom:2  $mol:. @atom:C1  0.0   4.70   0.00   0.00
    $atom:3  $mol:. @atom:C1  0.0   9.40   0.00   0.00
  }
  write("Data Bonds") {
    $bond:b1    @bond:Bo   $atom:1  $atom:2
    $bond:b2    @bond:Bo   $atom:2  $atom:3
  }
  write("Data Angles") {
    $angle:a1   @angle:An  $atom:1   $atom:2   $atom:3
  }

} # DODECANE
